p cnf 13 37
-1 -4 9 0
-2 5 -9 0
-2 10 13 0
4 10 -11 0
1 -6 12 0
-3 5 9 0
4 5 6 0
2 -8 -10 0
-1 -7 13 0
-3 -6 -13 0
-4 6 8 0
7 10 -11 0
-1 -7 -11 0
1 -10 11 0
5 7 -10 0
2 -3 4 0
1 -5 10 0
-6 -9 13 0
-3 -4 13 0
3 -5 -9 0
5 6 11 0
-2 4 -10 0
1 -4 8 0
-4 7 -13 0
-4 -11 -13 0
-5 6 -10 0
-2 9 -11 0
-1 -8 12 0
-5 9 11 0
2 10 11 0
1 -3 -6 0
-7 -10 -12 0
-1 5 -8 0
1 -7 13 0
1 -8 10 0
2 -4 5 0
2 7 8 0
